c --- [ banner ] -------------------------------------------------------------
c 
c CaDiCaL Radically Simplified CDCL SAT Solver
c Copyright (c) 2016-2021 A. Biere, M. Fleury, N. Froleyks
c 
c Version 1.5.2 a5f15211db36c3956764e18194dd5bd63bf3b5e6
c g++ (GCC) 9.3.0 -Wall -Wextra -O3 -DNDEBUG
c Fri Oct 21 01:27:37 EDT 2022 Linux gra-login3 3.10.0-1160.66.1.el7.x86_64 x86_64
c 
c --- [ limit ] --------------------------------------------------------------
c 
c setting conflict limit to 200000 conflicts (due to '200000')
c 
c --- [ parsing input ] ------------------------------------------------------
c 
c reading DIMACS file from '33.cubes4199.adj'
c opening file to read '33.cubes4199.adj'
c found 'p cnf 6160 1595470' header
c parsed 1595470 clauses in 19.28 seconds process time
c closing file '33.cubes4199.adj'
c after reading 1457566739 bytes 1390.0 MB
c 
c --- [ options ] ------------------------------------------------------------
c 
c all options are set to their default value
c 
c --- [ solving ] ------------------------------------------------------------
c 
c time measured in process time since initialization
c 
c  seconds    reductions  redundant   irredundant
c          MB     restarts       trail       variables
c            level   conflicts       glue         remaining
c 
c * 19.28 1376  0 0   0    0    0  0% 0 1595422 2441 40%
c { 20.31 1423  0 0   0    0    0  0% 0 1595422 2441 40%
c i 21.22 1457 1128 0   0   36   29 36% 3 1595422 2348 38%
c i 22.33 1488 797 0   3   50   41 33% 3 1595422 2319 38%
c i 22.97 1498 548 0   8   72   56 32% 12 1595422 2318 38%
c i 23.06 1499 532 0   9   74   57 32% 12 1595422 2317 38%
c i 23.07 1499 524 0   9   75   57 32% 12 1595422 2316 38%
c i 23.08 1499 509 0  10   77   58 32% 12 1595422 2315 38%
c i 23.70 1501 235 0  17  163   74 25% 8 1595422 2314 38%
c i 23.91 1502 229 0  18  170   80 26% 10 1595422 2313 38%
c i 24.09 1503 223 0  19  177   84 26% 10 1595422 2310 38%
c i 24.12 1504 222 0  20  179   85 25% 10 1595422 2309 37%
c i 24.15 1504 218 0  20  186   85 25% 10 1595422 2302 37%
c i 24.18 1504 213 0  20  195   87 25% 9 1595422 2295 37%
c i 24.41 1507 204 0  23  215  102 25% 11 1595422 2294 37%
c i 24.41 1507 203 0  23  216  102 25% 11 1595422 2293 37%
c i 24.51 1507 202 0  24  218  103 25% 11 1595422 2286 37%
c i 24.53 1508 201 0  24  219  103 25% 11 1595422 2285 37%
c i 25.05 1509 183 0  35  268  142 26% 17 1595422 2284 37%
c i 25.19 1510 167 0  42  296  156 26% 17 1595422 2283 37%
c 
c  seconds     reductions  redundant   irredundant
c          MB      restarts       trail       variables
c             level   conflicts       glue         remaining
c 
c - 28.74 1418 165 1  44  303  156 26% 17 138027 2283 37%
c i 29.00 1418 157 1  51  330  178 26% 17 138027 2282 37%
c i 29.00 1418 157 1  51  331  178 26% 17 138027 2281 37%
c i 29.00 1418 156 1  51  333  179 26% 17 138027 2280 37%
c i 29.04 1418 155 1  53  340  185 26% 17 138027 2279 37%
c i 29.05 1418 154 1  53  348  191 26% 18 138027 2278 37%
c i 29.19 1418 153 1  62  375  217 26% 19 138027 2277 37%
c i 29.24 1418 151 1  64  383  224 26% 19 138027 2276 37%
c i 29.30 1418 148 1  67  396  234 26% 20 138027 2275 37%
c i 29.44 1418 141 1  74  424  255 26% 19 138027 2274 37%
c i 29.45 1418 142 1  74  427  257 26% 20 138027 2273 37%
c i 29.46 1418 142 1  75  434  262 26% 21 138027 2272 37%
c i 29.81 1418 137 1  85  468  287 26% 21 138027 2271 37%
c i 29.93 1418 135 1  88  487  304 26% 22 138027 2270 37%
c i 30.07 1418 129 1  98  522  335 27% 23 138027 2269 37%
c i 30.07 1418 129 1  98  526  338 27% 23 138027 2268 37%
c i 30.09 1418 129 1 100  531  340 27% 23 138027 2266 37%
c i 30.15 1418 129 1 102  542  345 27% 24 138027 2263 37%
c i 30.16 1418 129 1 103  545  347 27% 24 138027 2262 37%
c i 30.37 1418 129 1 108  565  364 27% 25 138027 2261 37%
c 
c  seconds     reductions  redundant   irredundant
c          MB      restarts       trail       variables
c             level   conflicts       glue         remaining
c 
c i 30.44 1418 128 1 111  580  375 27% 26 138027 2260 37%
c i 30.61 1418 131 1 117  606  399 27% 30 138027 2259 37%
c i 30.65 1418 130 1 120  616  404 27% 30 138027 2258 37%
c i 30.75 1418 123 1 127  649  419 27% 28 138027 2257 37%
c i 30.77 1418 123 1 127  652  421 27% 28 138027 2256 37%
c i 30.77 1418 122 1 127  655  423 27% 28 138027 2255 37%
c i 30.80 1418 121 1 127  667  432 27% 28 138027 2254 37%
c i 30.86 1418 120 1 127  680  442 27% 28 138027 2253 37%
c i 30.92 1418 120 1 127  686  446 27% 28 138027 2252 37%
c i 30.95 1418 120 1 128  697  454 27% 29 138027 2251 37%
c i 30.98 1418 120 1 131  706  459 27% 30 138027 2250 37%
c i 31.11 1418 115 1 140  754  496 27% 29 138027 2249 37%
c i 31.16 1418 107 1 140  840  537 27% 28 138027 2248 36%
c i 31.22 1418 100 1 140  926  606 28% 28 138027 2247 36%
c i 31.28 1418 97 1 140  974  645 28% 28 138027 2246 36%
c i 31.28 1418 97 1 140  976  646 28% 28 138027 2245 36%
c - 31.52 1423 96 2 140  987  584 28% 27 137916 2245 36%
c i 31.59 1423 95 2 140 1001  597 28% 27 137916 2244 36%
c } 31.59 1423 95 2 140 1001  597 28% 27 137916 2244 36%
c [ 31.59 1423  0 2 140 1001  597  0% 0 137916 2244 36%
c 
c  seconds    reductions  redundant  irredundant
c          MB     restarts       trail      variables
c            level   conflicts       glue        remaining
c 
c O 31.59 1423  1 2 140 1002  598 14% 1 137916 2244 36%
c i 31.65 1423 20 2 140 1040  626 33% 17 137916 2243 36%
c i 31.65 1423 19 2 140 1050  634 33% 16 137916 2242 36%
c i 31.74 1423 17 2 140 1309  747 32% 15 137916 2241 36%
c i 31.75 1423 17 2 140 1317  752 32% 15 137916 2240 36%
c i 31.77 1423 17 2 140 1414  792 32% 15 137916 2239 36%
c i 31.79 1423 17 2 140 1471  832 32% 15 137916 2238 36%
c i 31.90 1423 17 2 140 1829  995 32% 15 137916 2237 36%
c i 31.91 1423 18 2 140 1836  997 32% 15 137916 2236 36%
c i 31.92 1423 18 2 140 1859 1006 32% 15 137916 2235 36%
c - 32.12 1391 18 3 140 2014  778 32% 16 137886 2235 36%
c i 32.53 1391 18 3 141 2797 1219 53% 16 137886 2234 36%
c ] 32.59 1391 18 3 141 3004 1323 53% 16 137886 2234 36%
c { 32.59 1391 95 3 141 3004 1323 77% 27 137886 2234 36%
c F 32.62 1391 95 3 141 3005 1324 77% 27 137886 2234 36%
c i 32.78 1391 83 3 145 3230 1486 72% 26 137886 2233 36%
c i 32.78 1391 83 3 145 3243 1495 72% 26 137886 2232 36%
c i 32.78 1391 83 3 145 3244 1495 72% 26 137886 2231 36%
c i 32.79 1391 82 3 145 3248 1496 72% 26 137886 2230 36%
c - 32.94 1340 76 4 145 3381 1196 70% 25 137872 2230 36%
c 
c  seconds    reductions  redundant   irredundant
c          MB     restarts       trail       variables
c            level   conflicts       glue         remaining
c 
c } 32.96 1340 76 4 145 3384 1199 70% 25 137872 2230 36%
c 1 32.96 1340 76 4 145 3384 1199 70% 25 137872 2230 36%
c 
c --- [ writing output ] -----------------------------------------------------
c 
c writing simplified CNF to DIMACS file 'simp/33.cubes4199.adj.simp1'
c * 32.96 1340 76 4 145 3384 1199 70% 25 137872 2230 36%
c opening file to write 'simp/33.cubes4199.adj.simp1'
c writing 'p cnf 6160 137872' header
c closing file 'simp/33.cubes4199.adj.simp1'
c after writing 58236204 bytes 55.5 MB
c wrote 137872 clauses in 0.42 seconds process time
c 
c --- [ writing extension ] --------------------------------------------------
c 
c writing extension stack to 'simp/33.cubes4199.adj.ext1'
c opening file to write 'simp/33.cubes4199.adj.ext1'
c closing file 'simp/33.cubes4199.adj.ext1'
c after writing 11692 bytes 0.0 MB
c wrote 786 witnesses in 0.00 seconds process time
c 
c --- [ result ] -------------------------------------------------------------
c 
s SATISFIABLE
c 
c --- [ run-time profiling ] -------------------------------------------------
c 
c process time taken by individual solving procedures
c (percentage relative to process time for solving)
c 
c        19.28  141.00% parse
c        13.67  100.00% search
c        11.65   85.19% unstable
c         1.02    7.49% lucky
c         1.00    7.31% stable
c         0.00    0.00% simplify
c   =================================
c        13.67   40.97% solve
c 
c last line shows process time for solving
c (percentage relative to total process time)
c 
c --- [ statistics ] ---------------------------------------------------------
c 
c chronological:               777        22.96 %  of conflicts
c conflicts:                  3384       247.46    per second
c decisions:                 18849      1378.36    per second
c fixed:                       786        12.76 %  of all variables
c learned:                    3292        97.28 %  per conflict
c learned_lits:             596666       100.00 %  learned literals
c minimized:                     0         0.00 %  learned literals
c shrunken:                 439534        73.66 %  learned literals
c minishrunken:              22657         3.80 %  learned literals
c propagations:             476050         0.03 M  per second
c reduced:                     742        21.93 %  per conflict
c rephased:                      2      1692.00    interval
c restarts:                    145        23.34    interval
c stabilizing:                   1        59.19 %  of conflicts
c subsumed:                   1260         0.04 %  of all clauses
c 
c seconds are measured in process time for solving
c 
c --- [ resources ] ----------------------------------------------------------
c 
c total process time since initialization:        33.37    seconds
c total real time since initialization:           33.64    seconds
c maximum resident set size of process:         1510.13    MB
c 
c --- [ shutting down ] ------------------------------------------------------
c 
c exit 10
WARNING! DIMACS header mismatch: wrong number of variables.
============================[ Problem Statistics ]=============================
|                                                                             |
|  Number of variables:          6120                                         |
|  Number of clauses:          137872                                         |
|  Parse time:                   0.77 s                                       |
|  Simplification time:          0.01 s                                       |
|                                                                             |
============================[ Search Statistics ]====================================================
| Conflicts |          ORIGINAL         |          LEARNT          | Num Sols |      SUBGRAPHS      |
|           |    Vars  Clauses Literals |    Limit  Clauses Lit/Cl |          | Canonical Noncanon. |
=====================================================================================================
|       196 |    6025   137968 12668629 |     2000      194     28 |        0 |        53        96 |
|      1209 |    6025   138831 12683990 |     2000     1207     19 |        0 |       216       959 |
|      1502 |    6025   138899 12684878 |     2000     1500     17 |        0 |       264      1027 |
|      2258 |    6025   139318 12691616 |     3602     1260     13 |        0 |       393      1446 |
|      4566 |    6025   141120 12719514 |     3602     3568     14 |        0 |       702      3248 |
|      6882 |    6023   142677 12741997 |     5001     4081     15 |        0 |       984      4805 |
|      9976 |    6022   144632 12775945 |     6301     4676     17 |        0 |      1425      6760 |
|     18079 |    6021   151027 12882703 |     8783     5861     23 |        0 |      2366     13155 |
|     28262 |    6021   158648 13008037 |    11202     6664     12 |        0 |      3573     20776 |
|     38446 |    6016   164988 13109487 |    12403    11245     40 |        0 |      4316     27116 |
|     66201 |    6015   186977 13433869 |    17211    10611     15 |        0 |      6308     49105 |
|     78605 |    6015   190732 13487916 |    18410    14415     34 |        0 |      6891     52860 |
|    135538 |    6015   234656 14090427 |    24406    19344     31 |        0 |      9659     96819 |
|    178856 |    5970   258512 14360008 |    28009    24264     26 |        0 |     11247    120676 |
=====================================================================================================
Number of solutions   : 0
Canonical subgraphs   : 11263          (45 /sec)
          order  3    : 1              (200000 /sec)
          order  4    : 1              (500000 /sec)
          order  5    : 1              (200000 /sec)
          order  6    : 1              (55556 /sec)
          order  7    : 2              (9901 /sec)
          order  8    : 4              (2083 /sec)
          order  9    : 14             (552 /sec)
          order 10    : 68             (198 /sec)
          order 11    : 333            (78 /sec)
          order 12    : 949            (50 /sec)
          order 13    : 7470           (49 /sec)
          order 14    : 1481           (43 /sec)
          order 15    : 538            (25 /sec)
          order 16    : 308            (21 /sec)
          order 17    : 71             (21 /sec)
          order 18    : 15             (11 /sec)
          order 19    : 6              (11 /sec)
          order 20    : 0              (-nan /sec)
          order 21    : 0              (-nan /sec)
          order 22    : 0              (-nan /sec)
Noncanonical subgraphs: 120778         (371 /sec)
          order  3    : 0              (-nan /sec)
          order  4    : 0              (-nan /sec)
          order  5    : 0              (-nan /sec)
          order  6    : 0              (-nan /sec)
          order  7    : 0              (-nan /sec)
          order  8    : 0              (-nan /sec)
          order  9    : 0              (-nan /sec)
          order 10    : 0              (-nan /sec)
          order 11    : 0              (-nan /sec)
          order 12    : 0              (-nan /sec)
          order 13    : 16397          (3188 /sec)
          order 14    : 99023          (330 /sec)
          order 15    : 3134           (327 /sec)
          order 16    : 1756           (239 /sec)
          order 17    : 308            (225 /sec)
          order 18    : 160            (123 /sec)
          order 19    : 0              (-nan /sec)
          order 20    : 0              (-nan /sec)
          order 21    : 0              (-nan /sec)
Canonicity checking   : 251.988 s
Noncanonicity checking: 325.198 s
Total canonicity time : 577.185 s
database reductions   : 21
restarts              : 506
conflicts             : 180622         (291 /sec)
decisions             : 358192         (0.00 % random) (576 /sec)
propagations          : 19679968       (31669 /sec)
conflict literals     : 6200250        (54.18 % deleted)
actual reward         : 0.059531
Memory used           : 179.00 MB
CPU time              : 621.435 s

UNSATISFIABLE
